Lab4/fifo_system_top_bmc/model/design_smt2.smt2
; SMT-LIBv2 description generated by Yosys 0.63+87 (git sha1 2f1cdc2df, clang++ 18.1.8 -fPIC -O3)
; yosys-smt2-module fifo_system_top_formal
(declare-sort |fifo_system_top_formal_s| 0)
(declare-fun |fifo_system_top_formal_is| (|fifo_system_top_formal_s|) Bool)
; yosys-smt2-witness {"offset": 0, "path": ["$auto$async2sync.cc:116:execute$77"], "smtname": 0, "smtoffset": 0, "type": "reg", "width": 1}
(declare-fun |fifo_system_top_formal#0| (|fifo_system_top_formal_s|) (_ BitVec 1)) ; $auto$async2sync.cc:116:execute$77
; yosys-smt2-register $auto$async2sync.cc:116:execute$77 1
(define-fun |fifo_system_top_formal_n $auto$async2sync.cc:116:execute$77| ((state |fifo_system_top_formal_s|)) Bool (= ((_ extract 0 0) (|fifo_system_top_formal#0| state)) #b1))
; yosys-smt2-witness {"offset": 0, "path": ["$auto$async2sync.cc:116:execute$83"], "smtname": 1, "smtoffset": 0, "type": "reg", "width": 1}
(declare-fun |fifo_system_top_formal#1| (|fifo_system_top_formal_s|) (_ BitVec 1)) ; $auto$async2sync.cc:116:execute$83
; yosys-smt2-register $auto$async2sync.cc:116:execute$83 1
(define-fun |fifo_system_top_formal_n $auto$async2sync.cc:116:execute$83| ((state |fifo_system_top_formal_s|)) Bool (= ((_ extract 0 0) (|fifo_system_top_formal#1| state)) #b1))
; yosys-smt2-witness {"offset": 0, "path": ["$auto$async2sync.cc:116:execute$89"], "smtname": 2, "smtoffset": 0, "type": "reg", "width": 1}
(declare-fun |fifo_system_top_formal#2| (|fifo_system_top_formal_s|) (_ BitVec 1)) ; $auto$async2sync.cc:116:execute$89
; yosys-smt2-register $auto$async2sync.cc:116:execute$89 1
(define-fun |fifo_system_top_formal_n $auto$async2sync.cc:116:execute$89| ((state |fifo_system_top_formal_s|)) Bool (= ((_ extract 0 0) (|fifo_system_top_formal#2| state)) #b1))
(declare-fun |fifo_system_top_formal#3| (|fifo_system_top_formal_s|) Bool) ; \i_r_clk
; yosys-smt2-input i_r_clk 1
; yosys-smt2-wire i_r_clk 1
; yosys-smt2-clock i_r_clk posedge
; yosys-smt2-witness {"offset": 0, "path": ["\\i_r_clk"], "smtname": "i_r_clk", "smtoffset": 0, "type": "posedge", "width": 1}
; yosys-smt2-witness {"offset": 0, "path": ["\\i_r_clk"], "smtname": "i_r_clk", "smtoffset": 0, "type": "input", "width": 1}
(define-fun |fifo_system_top_formal_n i_r_clk| ((state |fifo_system_top_formal_s|)) Bool (|fifo_system_top_formal#3| state))
(declare-fun |fifo_system_top_formal#4| (|fifo_system_top_formal_s|) Bool) ; \i_r_inc
; yosys-smt2-input i_r_inc 1
; yosys-smt2-wire i_r_inc 1
; yosys-smt2-witness {"offset": 0, "path": ["\\i_r_inc"], "smtname": "i_r_inc", "smtoffset": 0, "type": "input", "width": 1}
(define-fun |fifo_system_top_formal_n i_r_inc| ((state |fifo_system_top_formal_s|)) Bool (|fifo_system_top_formal#4| state))
(declare-fun |fifo_system_top_formal#5| (|fifo_system_top_formal_s|) Bool) ; \i_r_rstn
; yosys-smt2-input i_r_rstn 1
; yosys-smt2-wire i_r_rstn 1
; yosys-smt2-witness {"offset": 0, "path": ["\\i_r_rstn"], "smtname": "i_r_rstn", "smtoffset": 0, "type": "input", "width": 1}
(define-fun |fifo_system_top_formal_n i_r_rstn| ((state |fifo_system_top_formal_s|)) Bool (|fifo_system_top_formal#5| state))
(declare-fun |fifo_system_top_formal#6| (|fifo_system_top_formal_s|) Bool) ; \i_w_clk
; yosys-smt2-input i_w_clk 1
; yosys-smt2-wire i_w_clk 1
; yosys-smt2-clock i_w_clk posedge
; yosys-smt2-witness {"offset": 0, "path": ["\\i_w_clk"], "smtname": "i_w_clk", "smtoffset": 0, "type": "posedge", "width": 1}
; yosys-smt2-witness {"offset": 0, "path": ["\\i_w_clk"], "smtname": "i_w_clk", "smtoffset": 0, "type": "input", "width": 1}
(define-fun |fifo_system_top_formal_n i_w_clk| ((state |fifo_system_top_formal_s|)) Bool (|fifo_system_top_formal#6| state))
(declare-fun |fifo_system_top_formal#7| (|fifo_system_top_formal_s|) Bool) ; \i_w_inc
; yosys-smt2-input i_w_inc 1
; yosys-smt2-wire i_w_inc 1
; yosys-smt2-witness {"offset": 0, "path": ["\\i_w_inc"], "smtname": "i_w_inc", "smtoffset": 0, "type": "input", "width": 1}
(define-fun |fifo_system_top_formal_n i_w_inc| ((state |fifo_system_top_formal_s|)) Bool (|fifo_system_top_formal#7| state))
(declare-fun |fifo_system_top_formal#8| (|fifo_system_top_formal_s|) Bool) ; \i_w_rstn
; yosys-smt2-input i_w_rstn 1
; yosys-smt2-wire i_w_rstn 1
; yosys-smt2-witness {"offset": 0, "path": ["\\i_w_rstn"], "smtname": "i_w_rstn", "smtoffset": 0, "type": "input", "width": 1}
(define-fun |fifo_system_top_formal_n i_w_rstn| ((state |fifo_system_top_formal_s|)) Bool (|fifo_system_top_formal#8| state))
(declare-fun |fifo_system_top_formal#9| (|fifo_system_top_formal_s|) Bool) ; \o_empty
; yosys-smt2-input o_empty 1
; yosys-smt2-wire o_empty 1
; yosys-smt2-witness {"offset": 0, "path": ["\\o_empty"], "smtname": "o_empty", "smtoffset": 0, "type": "input", "width": 1}
(define-fun |fifo_system_top_formal_n o_empty| ((state |fifo_system_top_formal_s|)) Bool (|fifo_system_top_formal#9| state))
(declare-fun |fifo_system_top_formal#10| (|fifo_system_top_formal_s|) Bool) ; \o_full
; yosys-smt2-input o_full 1
; yosys-smt2-wire o_full 1
; yosys-smt2-witness {"offset": 0, "path": ["\\o_full"], "smtname": "o_full", "smtoffset": 0, "type": "input", "width": 1}
(define-fun |fifo_system_top_formal_n o_full| ((state |fifo_system_top_formal_s|)) Bool (|fifo_system_top_formal#10| state))
; yosys-smt2-witness {"offset": 0, "path": ["$auto$async2sync.cc:107:execute$85"], "smtname": 11, "smtoffset": 0, "type": "reg", "width": 1}
(declare-fun |fifo_system_top_formal#11| (|fifo_system_top_formal_s|) (_ BitVec 1)) ; $auto$async2sync.cc:107:execute$85
; yosys-smt2-register $auto$async2sync.cc:107:execute$85 1
(define-fun |fifo_system_top_formal_n $auto$async2sync.cc:107:execute$85| ((state |fifo_system_top_formal_s|)) Bool (= ((_ extract 0 0) (|fifo_system_top_formal#11| state)) #b1))
; yosys-smt2-witness {"offset": 0, "path": ["$auto$async2sync.cc:107:execute$79"], "smtname": 12, "smtoffset": 0, "type": "reg", "width": 1}
(declare-fun |fifo_system_top_formal#12| (|fifo_system_top_formal_s|) (_ BitVec 1)) ; $auto$async2sync.cc:107:execute$79
; yosys-smt2-register $auto$async2sync.cc:107:execute$79 1
(define-fun |fifo_system_top_formal_n $auto$async2sync.cc:107:execute$79| ((state |fifo_system_top_formal_s|)) Bool (= ((_ extract 0 0) (|fifo_system_top_formal#12| state)) #b1))
(declare-fun |fifo_system_top_formal#13| (|fifo_system_top_formal_s|) (_ BitVec 4)) ; \w_addr
; yosys-smt2-input w_addr 4
; yosys-smt2-wire w_addr 4
; yosys-smt2-witness {"offset": 0, "path": ["\\w_addr"], "smtname": "w_addr", "smtoffset": 0, "type": "input", "width": 4}
(define-fun |fifo_system_top_formal_n w_addr| ((state |fifo_system_top_formal_s|)) (_ BitVec 4) (|fifo_system_top_formal#13| state))
(define-fun |fifo_system_top_formal#14| ((state |fifo_system_top_formal_s|)) (_ BitVec 1) (bvnot (ite (|fifo_system_top_formal#6| state) #b1 #b0))) ; $auto$rtlil.cc:3197:Not$180
; yosys-smt2-assume 0 $auto$formalff.cc:987:execute$181
(define-fun |fifo_system_top_formal_u 0| ((state |fifo_system_top_formal_s|)) Bool (or (= ((_ extract 0 0) (|fifo_system_top_formal#14| state)) #b1) (not true))) ; $auto$formalff.cc:987:execute$181
(define-fun |fifo_system_top_formal#15| ((state |fifo_system_top_formal_s|)) (_ BitVec 1) (bvnot (ite (|fifo_system_top_formal#3| state) #b1 #b0))) ; $auto$rtlil.cc:3197:Not$177
; yosys-smt2-assume 1 $auto$formalff.cc:987:execute$178
(define-fun |fifo_system_top_formal_u 1| ((state |fifo_system_top_formal_s|)) Bool (or (= ((_ extract 0 0) (|fifo_system_top_formal#15| state)) #b1) (not true))) ; $auto$formalff.cc:987:execute$178
; yosys-smt2-assert 0 _witness_.check_assert_fifo_system_top_formal_sv_43_6 fifo_system_top_formal.sv:43.13-43.41
(define-fun |fifo_system_top_formal_a 0| ((state |fifo_system_top_formal_s|)) Bool (or (= ((_ extract 0 0) (|fifo_system_top_formal#0| state)) #b1) (not (= ((_ extract 0 0) (|fifo_system_top_formal#11| state)) #b1)))) ; _witness_.check_assert_fifo_system_top_formal_sv_43_6
; yosys-smt2-assert 1 _witness_.check_assert_fifo_system_top_formal_sv_48_10 fifo_system_top_formal.sv:48.13-48.42
(define-fun |fifo_system_top_formal_a 1| ((state |fifo_system_top_formal_s|)) Bool (or (= ((_ extract 0 0) (|fifo_system_top_formal#1| state)) #b1) (not (= ((_ extract 0 0) (|fifo_system_top_formal#12| state)) #b1)))) ; _witness_.check_assert_fifo_system_top_formal_sv_48_10
; yosys-smt2-assert 2 _witness_.check_assert_fifo_system_top_formal_sv_53_14 fifo_system_top_formal.sv:53.13-53.35
(define-fun |fifo_system_top_formal_a 2| ((state |fifo_system_top_formal_s|)) Bool (or (= ((_ extract 0 0) (|fifo_system_top_formal#2| state)) #b1) (not (= ((_ extract 0 0) (|fifo_system_top_formal#11| state)) #b1)))) ; _witness_.check_assert_fifo_system_top_formal_sv_53_14
(define-fun |fifo_system_top_formal#16| ((state |fifo_system_top_formal_s|)) Bool (and (or  (|fifo_system_top_formal#7| state) false) (or  (|fifo_system_top_formal#10| state) false))) ; $logic_and$fifo_system_top_formal.sv:43$7_Y
(define-fun |fifo_system_top_formal#17| ((state |fifo_system_top_formal_s|)) Bool (not (or  (|fifo_system_top_formal#16| state) false))) ; $logic_not$fifo_system_top_formal.sv:43$8_Y
(define-fun |fifo_system_top_formal#18| ((state |fifo_system_top_formal_s|)) (_ BitVec 1) (ite (|fifo_system_top_formal#8| state) #b1 #b0)) ; $assert$fifo_system_top_formal.sv:43$6_EN
; yosys-smt2-assume 2 _witness_.check_assume_fifo_system_top_formal_sv_61_17 fifo_system_top_formal.sv:61.13-61.41
(define-fun |fifo_system_top_formal_u 2| ((state |fifo_system_top_formal_s|)) Bool (or (|fifo_system_top_formal#17| state) (not (= ((_ extract 0 0) (|fifo_system_top_formal#18| state)) #b1)))) ; _witness_.check_assume_fifo_system_top_formal_sv_61_17
(define-fun |fifo_system_top_formal#19| ((state |fifo_system_top_formal_s|)) Bool (and (or  (|fifo_system_top_formal#4| state) false) (or  (|fifo_system_top_formal#9| state) false))) ; $logic_and$fifo_system_top_formal.sv:48$11_Y
(define-fun |fifo_system_top_formal#20| ((state |fifo_system_top_formal_s|)) Bool (not (or  (|fifo_system_top_formal#19| state) false))) ; $logic_not$fifo_system_top_formal.sv:48$12_Y
(define-fun |fifo_system_top_formal#21| ((state |fifo_system_top_formal_s|)) (_ BitVec 1) (ite (|fifo_system_top_formal#5| state) #b1 #b0)) ; $assert$fifo_system_top_formal.sv:48$10_EN
; yosys-smt2-assume 3 _witness_.check_assume_fifo_system_top_formal_sv_66_21 fifo_system_top_formal.sv:66.13-66.42
(define-fun |fifo_system_top_formal_u 3| ((state |fifo_system_top_formal_s|)) Bool (or (|fifo_system_top_formal#20| state) (not (= ((_ extract 0 0) (|fifo_system_top_formal#21| state)) #b1)))) ; _witness_.check_assume_fifo_system_top_formal_sv_66_21
(define-fun |fifo_system_top_formal#22| ((state |fifo_system_top_formal_s|)) Bool (not (or  (|fifo_system_top_formal#10| state) false))) ; $logic_not$fifo_system_top_formal.sv:76$25_Y
(define-fun |fifo_system_top_formal#23| ((state |fifo_system_top_formal_s|)) Bool (and (or  (|fifo_system_top_formal#8| state) false) (or  (|fifo_system_top_formal#22| state) false))) ; $logic_and$fifo_system_top_formal.sv:76$26_Y
(define-fun |fifo_system_top_formal#24| ((state |fifo_system_top_formal_s|)) (_ BitVec 1) (ite (|fifo_system_top_formal#23| state) #b1 #b0)) ; $assume$fifo_system_top_formal.sv:77$27_EN
; yosys-smt2-assume 4 _witness_.check_assume_fifo_system_top_formal_sv_77_27 fifo_system_top_formal.sv:77.13-77.28
(define-fun |fifo_system_top_formal_u 4| ((state |fifo_system_top_formal_s|)) Bool (or (|fifo_system_top_formal#7| state) (not (= ((_ extract 0 0) (|fifo_system_top_formal#24| state)) #b1)))) ; _witness_.check_assume_fifo_system_top_formal_sv_77_27
(define-fun |fifo_system_top_formal#25| ((state |fifo_system_top_formal_s|)) Bool (and (or  (|fifo_system_top_formal#5| state) false) (or  (|fifo_system_top_formal#10| state) false))) ; $logic_and$fifo_system_top_formal.sv:82$29_Y
(define-fun |fifo_system_top_formal#26| ((state |fifo_system_top_formal_s|)) (_ BitVec 1) (ite (|fifo_system_top_formal#25| state) #b1 #b0)) ; $assume$fifo_system_top_formal.sv:83$30_EN
; yosys-smt2-assume 5 _witness_.check_assume_fifo_system_top_formal_sv_83_30 fifo_system_top_formal.sv:83.13-83.28
(define-fun |fifo_system_top_formal_u 5| ((state |fifo_system_top_formal_s|)) Bool (or (|fifo_system_top_formal#4| state) (not (= ((_ extract 0 0) (|fifo_system_top_formal#26| state)) #b1)))) ; _witness_.check_assume_fifo_system_top_formal_sv_83_30
(define-fun |fifo_system_top_formal#27| ((state |fifo_system_top_formal_s|)) Bool (bvult (concat #b0 (|fifo_system_top_formal#13| state)) #b10000)) ; $lt$fifo_system_top_formal.sv:53$15_Y
(define-fun |fifo_system_top_formal_a| ((state |fifo_system_top_formal_s|)) Bool (and
  (|fifo_system_top_formal_a 0| state)
  (|fifo_system_top_formal_a 1| state)
  (|fifo_system_top_formal_a 2| state)
))
(define-fun |fifo_system_top_formal_u| ((state |fifo_system_top_formal_s|)) Bool (and
  (|fifo_system_top_formal_u 0| state)
  (|fifo_system_top_formal_u 1| state)
  (|fifo_system_top_formal_u 2| state)
  (|fifo_system_top_formal_u 3| state)
  (|fifo_system_top_formal_u 4| state)
  (|fifo_system_top_formal_u 5| state)
))
(define-fun |fifo_system_top_formal_i| ((state |fifo_system_top_formal_s|)) Bool (and
  (= (= ((_ extract 0 0) (|fifo_system_top_formal#0| state)) #b1) true) ; $auto$async2sync.cc:116:execute$77
  (= (= ((_ extract 0 0) (|fifo_system_top_formal#1| state)) #b1) true) ; $auto$async2sync.cc:116:execute$83
  (= (= ((_ extract 0 0) (|fifo_system_top_formal#2| state)) #b1) true) ; $auto$async2sync.cc:116:execute$89
  (= (= ((_ extract 0 0) (|fifo_system_top_formal#11| state)) #b1) false) ; $auto$async2sync.cc:107:execute$85
  (= (= ((_ extract 0 0) (|fifo_system_top_formal#12| state)) #b1) false) ; $auto$async2sync.cc:107:execute$79
))
(define-fun |fifo_system_top_formal_h| ((state |fifo_system_top_formal_s|)) Bool true)
(define-fun |fifo_system_top_formal_t| ((state |fifo_system_top_formal_s|) (next_state |fifo_system_top_formal_s|)) Bool (and
  (= (|fifo_system_top_formal#21| state) (|fifo_system_top_formal#12| next_state)) ; $auto$async2sync.cc:110:execute$81 $auto$async2sync.cc:107:execute$79
  (= (|fifo_system_top_formal#18| state) (|fifo_system_top_formal#11| next_state)) ; $auto$async2sync.cc:110:execute$87 $auto$async2sync.cc:107:execute$85
  (= (ite (|fifo_system_top_formal#27| state) #b1 #b0) (|fifo_system_top_formal#2| next_state)) ; $auto$async2sync.cc:118:execute$90 $auto$async2sync.cc:116:execute$89
  (= (ite (|fifo_system_top_formal#20| state) #b1 #b0) (|fifo_system_top_formal#1| next_state)) ; $auto$async2sync.cc:118:execute$84 $auto$async2sync.cc:116:execute$83
  (= (ite (|fifo_system_top_formal#17| state) #b1 #b0) (|fifo_system_top_formal#0| next_state)) ; $auto$async2sync.cc:118:execute$78 $auto$async2sync.cc:116:execute$77
)) ; end of module fifo_system_top_formal
; yosys-smt2-topmod fifo_system_top_formal
; end of yosys output
